Route 0: 1433 
Route 1: 1434 
Route 2: 179 
Route 3: 1436 
Route 4: 1437 
Route 5: 1438 
Route 6: 417 419 1241 1949 
Route 7: 197 199 202 
Route 8: 1445 
Route 9: 386 
Route 10: 1868 
Route 11: 1447 
Route 12: 1448 1464 363 
Route 13: 586 1676 
Route 14: 1699 
Route 15: 1451 1471 
Route 16: 1226 1236 1263 
Route 17: 1185 
Route 18: 479 
Route 19: 532 
Route 20: 1458 
Route 21: 1459 1216 
Route 22: 1461 
Route 23: 1462 1494 
Route 24: 1463 
Route 25: 1465 
Route 26: 1225 
Route 27: 1277 
Route 28: 1281 246 
Route 29: 1470 
Route 30: 839 852 
Route 31: 1474 
Route 32: 1475 1519 
Route 33: 1476 
Route 34: 1002 1017 907 
Route 35: 1480 
Route 36: 1481 1678 
Route 37: 697 1270 1298 
Route 38: 1770 
Route 39: 1391 
Route 40: 1486 
Route 41: 1487 1544 
Route 42: 1488 
Route 43: 3 
Route 44: 1673 
Route 45: 1490 1521 
Route 46: 1491 276 
Route 47: 1493 
Route 48: 530 
Route 49: 1496 296 1368 446 459 
Route 50: 1501 512 
Route 51: 1503 63 
Route 52: 1505 1581 
Route 53: 1506 671 506 
Route 54: 972 
Route 55: 1178 472 
Route 56: 1512 
Route 57: 794 770 
Route 58: 1515 
Route 59: 1516 790 
Route 60: 1632 
Route 61: 9 11 
Route 62: 1806 1905 
Route 63: 1522 1614 
Route 64: 1523 
Route 65: 1524 
Route 66: 993 1029 
Route 67: 32 
Route 68: 443 
Route 69: 185 
Route 70: 1619 
Route 71: 1201 814 
Route 72: 373 1084 
Route 73: 1534 725 310 
Route 74: 1531 
Route 75: 1538 1649 
Route 76: 1539 148 
Route 77: 1812 
Route 78: 740 
Route 79: 1542 
Route 80: 1543 869 1258 
Route 81: 992 
Route 82: 1548 
Route 83: 926 
Route 84: 1550 1674 
Route 85: 1615 
Route 86: 1551 24 
Route 87: 1553 269 1030 
Route 88: 457 
Route 89: 1557 
Route 90: 1722 374 
Route 91: 369 70 
Route 92: 1702 1319 
Route 93: 1562 
Route 94: 1563 
Route 95: 1541 997 
Route 96: 1566 1131 
Route 97: 1872 
Route 98: 1568 
Route 99: 1785 
Route 100: 738 
Route 101: 1570 766 1721 1994 
Route 102: 136 
Route 103: 1618 1565 99 
Route 104: 503 
Route 105: 1576 800 
Route 106: 1583 
Route 107: 797 188 
Route 108: 1900 
Route 109: 1580 
Route 110: 1077 1162 
Route 111: 1585 
Route 112: 1586 1754 
Route 113: 1850 447 
Route 114: 1588 
Route 115: 1589 
Route 116: 1590 1763 
Route 117: 1167 
Route 118: 924 174 
Route 119: 331 
Route 120: 1717 1228 240 
Route 121: 1597 
Route 122: 1598 556 
Route 123: 1970 
Route 124: 1600 
Route 125: 1798 1996 
Route 126: 1601 
Route 127: 1602 1791 
Route 128: 272 
Route 129: 1027 
Route 130: 560 1384 
Route 131: 1460 911 
Route 132: 1549 
Route 133: 1610 
Route 134: 1377 
Route 135: 1612 1681 
Route 136: 1613 
Route 137: 1375 806 
Route 138: 1620 
Route 139: 1621 
Route 140: 987 1064 
Route 141: 1624 
Route 142: 1625 
Route 143: 1910 59 334 
Route 144: 1193 1293 
Route 145: 529 
Route 146: 1859 
Route 147: 1631 1323 
Route 148: 1634 283 76 
Route 149: 620 1157 
Route 150: 1535 1933 
Route 151: 1640 
Route 152: 1641 
Route 153: 1642 968 1052 
Route 154: 89 100 
Route 155: 60 
Route 156: 1847 
Route 157: 1648 1888 
Route 158: 1650 
Route 159: 866 1332 
Route 160: 1653 1898 
Route 161: 552 
Route 162: 204 
Route 163: 1656 
Route 164: 1657 
Route 165: 1018 
Route 166: 1659 
Route 167: 343 
Route 168: 1347 
Route 169: 1662 771 
Route 170: 159 
Route 171: 1665 1926 66 
Route 172: 999 1173 
Route 173: 1669 
Route 174: 1816 910 
Route 175: 864 949 
Route 176: 371 1605 22 
Route 177: 829 
Route 178: 1682 
Route 179: 1159 
Route 180: 1684 
Route 181: 1685 
Route 182: 816 
Route 183: 1687 1211 
Route 184: 1689 
Route 185: 304 
Route 186: 238 
Route 187: 1692 
Route 188: 525 590 720 
Route 189: 1696 
Route 190: 1090 
Route 191: 1698 1992 897 
Route 192: 1057 
Route 193: 1703 
Route 194: 383 431 
Route 195: 1706 632 
Route 196: 921 
Route 197: 1513 
Route 198: 1710 
Route 199: 1711 
Route 200: 635 708 718 
Route 201: 1715 
Route 202: 1716 408 
Route 203: 1608 
Route 204: 1121 
Route 205: 1113 
Route 206: 1724 
Route 207: 1020 
Route 208: 224 
Route 209: 454 
Route 210: 1728 
Route 211: 1339 1561 
Route 212: 1731 
Route 213: 42 1954 
Route 214: 1733 
Route 215: 1073 
Route 216: 1735 
Route 217: 1540 
Route 218: 1065 1206 
Route 219: 1932 
Route 220: 873 983 
Route 221: 838 1022 
Route 222: 1080 
Route 223: 854 
Route 224: 1745 
Route 225: 1783 
Route 226: 1746 
Route 227: 1747 
Route 228: 1412 594 
Route 229: 1417 
Route 230: 1751 
Route 231: 1752 
Route 232: 1753 
Route 233: 1755 
Route 234: 1756 
Route 235: 1757 1217 736 
Route 236: 1760 1016 
Route 237: 1762 
Route 238: 1554 
Route 239: 1311 1545 
Route 240: 1767 
Route 241: 1768 
Route 242: 1769 
Route 243: 1686 
Route 244: 1772 147 
Route 245: 1774 
Route 246: 1775 1707 784 
Route 247: 1778 1255 1442 1793 
Route 248: 494 
Route 249: 1782 1116 
Route 250: 1338 
Route 251: 1787 
Route 252: 465 
Route 253: 448 
Route 254: 876 
Route 255: 1792 
Route 256: 1941 
Route 257: 372 
Route 258: 1795 596 
Route 259: 492 
Route 260: 1799 
Route 261: 1800 52 62 
Route 262: 1803 
Route 263: 584 
Route 264: 1805 
Route 265: 1807 1454 
Route 266: 1809 165 192 
Route 267: 1813 455 
Route 268: 1815 
Route 269: 1817 
Route 270: 877 1009 
Route 271: 1820 
Route 272: 1821 1124 
Route 273: 1823 776 898 
Route 274: 351 1802 
Route 275: 1828 1831 
Route 276: 1829 
Route 277: 300 748 1414 
Route 278: 977 
Route 279: 1279 1537 
Route 280: 564 109 
Route 281: 1388 
Route 282: 1177 
Route 283: 1765 325 
Route 284: 1843 
Route 285: 1842 951 
Route 286: 1846 
Route 287: 1873 
Route 288: 1267 742 
Route 289: 1851 354 
Route 290: 1853 
Route 291: 1854 
Route 292: 704 
Route 293: 1636 
Route 294: 1857 
Route 295: 756 
Route 296: 280 
Route 297: 621 
Route 298: 1862 
Route 299: 498 
Route 300: 1573 
Route 301: 1865 
Route 302: 1866 
Route 303: 1202 395 
Route 304: 426 
Route 305: 567 
Route 306: 1874 
Route 307: 1128 1148 
Route 308: 1877 
Route 309: 1878 582 
Route 310: 1880 287 
Route 311: 1882 
Route 312: 1883 1617 
Route 313: 1885 5 
Route 314: 1887 835 
Route 315: 1626 
Route 316: 1891 624 
Route 317: 1893 
Route 318: 1894 
Route 319: 1895 
Route 320: 1896 1165 1290 
Route 321: 121 175 
Route 322: 319 739 988 
Route 323: 429 518 
Route 324: 1975 
Route 325: 1909 1849 
Route 326: 263 
Route 327: 1913 
Route 328: 1914 
Route 329: 462 561 
Route 330: 1917 
Route 331: 1256 1577 
Route 332: 499 608 
Route 333: 938 1137 1381 
Route 334: 87 
Route 335: 1927 
Route 336: 1359 863 356 
Route 337: 292 
Route 338: 1934 
Route 339: 1013 1838 
Route 340: 1937 
Route 341: 1295 
Route 342: 1939 
Route 343: 1940 948 
Route 344: 1943 361 
Route 345: 617 
Route 346: 1946 138 
Route 347: 391 482 133 519 
Route 348: 662 
Route 349: 1688 
Route 350: 1956 
Route 351: 1666 
Route 352: 1958 
Route 353: 235 
Route 354: 1253 1623 
Route 355: 1962 
Route 356: 674 828 
Route 357: 986 
Route 358: 1110 1272 
Route 359: 1968 
Route 360: 1871 
Route 361: 1971 
Route 362: 1972 
Route 363: 781 
Route 364: 681 
Route 365: 853 364 450 
Route 366: 1664 1419 513 
Route 367: 1982 
Route 368: 844 
Route 369: 1984 
Route 370: 456 
Route 371: 527 
Route 372: 1021 
Route 373: 195 237 
Route 374: 963 762 
Route 375: 1993 
Route 376: 309 
Route 377: 1938 
Route 378: 1328 
Route 379: 1999 170 
Route 380: 628 
Route 381: 779 
Route 382: 1889 
Route 383: 834 
Route 384: 629 792 1004 
Route 385: 630 796 
Route 386: 1081 
Route 387: 317 
Route 388: 1207 
Route 389: 1331 
Route 390: 1301 
Route 391: 1897 
Route 392: 1334 
Route 393: 1901 
Route 394: 752 1708 
Route 395: 1904 
Route 396: 91 
Route 397: 634 
Route 398: 788 
Route 399: 1341 
Route 400: 1415 541 
Route 401: 637 815 
Route 402: 222 1861 
Route 403: 458 574 
Route 404: 641 1144 
Route 405: 394 1804 
Route 406: 168 
Route 407: 1950 
Route 408: 1743 1560 
Route 409: 169 114 
Route 410: 1663 510 
Route 411: 1306 
Route 412: 587 758 
Route 413: 648 
Route 414: 1952 
Route 415: 230 
Route 416: 643 
Route 417: 651 
Route 418: 1973 
Route 419: 1974 
Route 420: 1574 
Route 421: 1977 
Route 422: 424 
Route 423: 817 
Route 424: 1963 
Route 425: 614 
Route 426: 80 211 
Route 427: 656 
Route 428: 124 155 
Route 429: 1373 
Route 430: 1990 
Route 431: 1979 
Route 432: 812 
Route 433: 825 
Route 434: 1983 
Route 435: 1985 1172 
Route 436: 1003 
Route 437: 1988 
Route 438: 1380 
Route 439: 477 
Route 440: 868 1150 
Route 441: 191 249 323 
Route 442: 664 
Route 443: 1633 
Route 444: 833 
Route 445: 1035 
Route 446: 665 
Route 447: 837 
Route 448: 1916 
Route 449: 535 
Route 450: 1376 
Route 451: 1628 
Route 452: 667 1989 
Route 453: 668 904 
Route 454: 843 
Route 455: 536 
Route 456: 505 1234 
Route 457: 672 
Route 458: 905 
Route 459: 1348 528 
Route 460: 782 682 
Route 461: 955 
Route 462: 353 
Route 463: 913 
Route 464: 1302 
Route 465: 971 
Route 466: 914 
Route 467: 915 
Route 468: 1423 
Route 469: 4 
Route 470: 856 
Route 471: 857 1160 
Route 472: 858 
Route 473: 677 
Route 474: 678 190 
Route 475: 680 449 631 
Route 476: 1231 
Route 477: 1441 
Route 478: 1646 
Route 479: 1944 
Route 480: 1242 1867 
Route 481: 544 1645 
Route 482: 1764 581 804 
Route 483: 687 406 
Route 484: 1286 
Route 485: 1845 1315 
Route 486: 878 
Route 487: 161 
Route 488: 1788 
Route 489: 975 
Route 490: 690 
Route 491: 691 
Route 492: 326 434 
Route 493: 694 
Route 494: 695 
Route 495: 1164 
Route 496: 696 
Route 497: 698 
Route 498: 699 
Route 499: 889 
Route 500: 49 
Route 501: 1827 
Route 502: 553 1320 
Route 503: 1528 
Route 504: 702 950 
Route 505: 703 798 
Route 506: 1101 
Route 507: 705 
Route 508: 1251 653 
Route 509: 550 
Route 510: 1056 
Route 511: 709 203 
Route 512: 711 
Route 513: 29 38 50 69 
Route 514: 969 
Route 515: 422 
Route 516: 717 
Route 517: 719 
Route 518: 562 
Route 519: 1929 
Route 520: 978 
Route 521: 979 
Route 522: 925 
Route 523: 423 
Route 524: 723 
Route 525: 724 1072 
Route 526: 1019 1212 1936 
Route 527: 666 991 1452 
Route 528: 1811 1654 
Route 529: 425 
Route 530: 728 
Route 531: 344 496 
Route 532: 301 1911 
Route 533: 732 
Route 534: 733 
Route 535: 734 
Route 536: 1161 
Route 537: 332 467 
Route 538: 1325 1571 
Route 539: 1350 918 
Route 540: 939 1133 
Route 541: 940 
Route 542: 104 
Route 543: 1374 899 
Route 544: 743 
Route 545: 744 
Route 546: 945 
Route 547: 946 
Route 548: 745 389 
Route 549: 747 
Route 550: 1957 
Route 551: 57 
Route 552: 1146 588 
Route 553: 1725 1372 
Route 554: 145 206 
Route 555: 754 
Route 556: 755 
Route 557: 1038 
Route 558: 1879 765 
Route 559: 989 1115 1826 
Route 560: 962 
Route 561: 591 919 
Route 562: 966 
Route 563: 132 
Route 564: 846 
Route 565: 760 
Route 566: 761 
Route 567: 273 
Route 568: 1661 
Route 569: 764 
Route 570: 679 1074 
Route 571: 1695 
Route 572: 1697 
Route 573: 1700 
Route 574: 1801 94 
Route 575: 1102 359 
Route 576: 1008 355 1069 
Route 577: 1155 
Route 578: 990 
Route 579: 994 
Route 580: 953 1500 
Route 581: 996 
Route 582: 1316 944 
Route 583: 773 
Route 584: 774 
Route 585: 1220 
Route 586: 775 
Route 587: 1006 1651 
Route 588: 97 436 
Route 589: 780 
Route 590: 639 
Route 591: 1014 
Route 592: 172 
Route 593: 786 262 
Route 594: 1025 
Route 595: 789 
Route 596: 700 
Route 597: 282 1095 1367 
Route 598: 795 
Route 599: 1122 
Route 600: 799 
Route 601: 801 
Route 602: 802 
Route 603: 803 
Route 604: 805 871 
Route 605: 1303 
Route 606: 1257 
Route 607: 1389 645 18 
Route 608: 809 
Route 609: 340 229 
Route 610: 813 
Route 611: 421 
Route 612: 256 
Route 613: 663 1109 
Route 614: 600 
Route 615: 831 
Route 616: 822 
Route 617: 439 
Route 618: 1468 1611 
Route 619: 316 1730 
Route 620: 1841 
Route 621: 1120 
Route 622: 1235 
Route 623: 1344 
Route 624: 251 
Route 625: 1000 
Route 626: 1060 
Route 627: 827 1383 
Route 628: 830 
Route 629: 1125 242 377 575 
Route 630: 654 
Route 631: 842 
Route 632: 611 194 
Route 633: 1023 1837 
Route 634: 127 
Route 635: 615 
Route 636: 1082 
Route 637: 850 
Route 638: 851 
Route 639: 409 
Route 640: 859 
Route 641: 860 
Route 642: 105 
Route 643: 862 
Route 644: 865 
Route 645: 909 186 772 
Route 646: 440 
Route 647: 396 
Route 648: 1099 
Route 649: 1100 
Route 650: 1431 
Route 651: 625 
Route 652: 1232 1015 
Route 653: 1824 
Route 654: 1138 
Route 655: 21 
Route 656: 367 573 
Route 657: 882 
Route 658: 1908 791 
Route 659: 1808 
Route 660: 103 
Route 661: 1114 
Route 662: 638 
Route 663: 1139 1392 
Route 664: 640 
Route 665: 887 
Route 666: 888 
Route 667: 890 
Route 668: 1195 
Route 669: 495 
Route 670: 598 
Route 671: 713 1670 
Route 672: 1604 213 
Route 673: 1134 
Route 674: 1078 
Route 675: 604 
Route 676: 1140 
Route 677: 896 388 1472 
Route 678: 901 
Route 679: 1188 
Route 680: 2 
Route 681: 1709 
Route 682: 1147 1129 
Route 683: 54 82 
Route 684: 1222 502 
Route 685: 1559 1058 7 
Route 686: 1158 
Route 687: 1230 
Route 688: 1265 1361 
Route 689: 1395 
Route 690: 1233 
Route 691: 1237 
Route 692: 906 
Route 693: 601 
Route 694: 1742 
Route 695: 1168 
Route 696: 965 1899 
Route 697: 726 
Route 698: 1171 
Route 699: 712 1324 
Route 700: 923 
Route 701: 558 1053 
Route 702: 867 
Route 703: 661 
Route 704: 1986 1245 
Route 705: 930 1833 
Route 706: 931 420 943 
Route 707: 1187 
Route 708: 916 
Route 709: 753 
Route 710: 935 86 
Route 711: 501 
Route 712: 941 
Route 713: 1197 
Route 714: 1198 
Route 715: 1844 
Route 716: 1278 
Route 717: 1518 
Route 718: 1637 504 
Route 719: 1200 
Route 720: 534 1227 
Route 721: 952 
Route 722: 954 
Route 723: 193 
Route 724: 1349 
Route 725: 592 
Route 726: 404 
Route 727: 973 
Route 728: 1336 
Route 729: 959 
Route 730: 960 
Route 731: 961 
Route 732: 785 1525 
Route 733: 1221 
Route 734: 1223 
Route 735: 1305 
Route 736: 1552 
Route 737: 1307 
Route 738: 746 1446 
Route 739: 227 
Route 740: 974 
Route 741: 1205 
Route 742: 976 
Route 743: 688 
Route 744: 20 34 
Route 745: 984 
Route 746: 1499 
Route 747: 985 689 
Route 748: 1356 
Route 749: 998 1096 
Route 750: 1254 
Route 751: 1259 
Route 752: 1260 
Route 753: 1001 
Route 754: 1005 
Route 755: 1264 209 
Route 756: 1010 1825 
Route 757: 441 
Route 758: 1351 
Route 759: 1947 
Route 760: 1330 
Route 761: 1271 
Route 762: 1362 
Route 763: 1354 1104 
Route 764: 1274 902 
Route 765: 1276 
Route 766: 1280 
Route 767: 1532 414 1054 
Route 768: 1213 
Route 769: 153 
Route 770: 1363 
Route 771: 1287 
Route 772: 1244 
Route 773: 106 
Route 774: 1510 1296 
Route 775: 1771 
Route 776: 1031 
Route 777: 1386 
Route 778: 1387 
Route 779: 549 1127 
Route 780: 1123 
Route 781: 517 
Route 782: 1836 
Route 783: 346 
Route 784: 1584 903 
Route 785: 1466 1142 
Route 786: 660 
Route 787: 1310 
Route 788: 1192 483 1007 
Route 789: 894 
Route 790: 1456 545 
Route 791: 1504 
Route 792: 92 149 
Route 793: 1045 
Route 794: 1046 
Route 795: 593 
Route 796: 1353 
Route 797: 1789 
Route 798: 79 
Route 799: 1335 
Route 800: 824 
Route 801: 1340 
Route 802: 402 
Route 803: 722 1219 113 
Route 804: 1059 
Route 805: 1061 1186 
Route 806: 1062 
Route 807: 1063 
Route 808: 1066 845 
Route 809: 820 
Route 810: 1070 
Route 811: 1343 
Route 812: 1449 
Route 813: 1371 
Route 814: 1089 
Route 815: 751 
Route 816: 444 908 1864 
Route 817: 1079 934 1945 
Route 818: 1085 71 
Route 819: 463 
Route 820: 769 
Route 821: 1091 
Route 822: 1092 362 1766 
Route 823: 1729 
Route 824: 216 123 
Route 825: 686 
Route 826: 783 
Route 827: 129 225 
Route 828: 1107 
Route 829: 1108 
Route 830: 435 1915 
Route 831: 1411 
Route 832: 1154 1312 
Route 833: 1960 
Route 834: 1533 
Route 835: 381 
Route 836: 1526 
Route 837: 1921 357 
Route 838: 1421 
Route 839: 90 
Route 840: 1119 
Route 841: 1425 
Route 842: 673 
Route 843: 1130 
Route 844: 1529 
Route 845: 1981 
Route 846: 819 
Route 847: 167 
Route 848: 1282 
Route 849: 1136 721 
Route 850: 390 
Route 851: 1603 
Route 852: 1727 
Route 853: 315 
Route 854: 1607 250 
Route 855: 1680 1959 
Route 856: 1152 
Route 857: 1151 
Route 858: 1453 335 
Route 859: 1156 
Route 860: 515 1291 
Route 861: 1998 1942 
Route 862: 1166 
Route 863: 1169 
Route 864: 1170 257 
Route 865: 1869 1955 
Route 866: 116 
Route 867: 1176 302 
Route 868: 1658 
Route 869: 1180 715 
Route 870: 151 171 
Route 871: 1184 
Route 872: 474 937 1047 
Route 873: 874 
Route 874: 1196 1443 
Route 875: 1514 
Route 876: 1517 
Route 877: 484 
Route 878: 1964 
Route 879: 1203 
Route 880: 45 618 
Route 881: 1209 
Route 882: 1210 
Route 883: 1738 706 
Route 884: 27 
Route 885: 1218 727 
Route 886: 995 
Route 887: 1088 568 
Route 888: 597 
Route 889: 1691 
Route 890: 1243 
Route 891: 1567 393 
Route 892: 1587 
Route 893: 683 
Route 894: 74 
Route 895: 647 1679 
Route 896: 1520 
Route 897: 1250 1796 
Route 898: 1252 
Route 899: 1033 
Route 900: 1924 271 
Route 901: 58 117 221 
Route 902: 1273 
Route 903: 1758 
Route 904: 125 
Route 905: 1283 
Route 906: 1422 
Route 907: 1284 
Route 908: 102 200 
Route 909: 610 
Route 910: 1292 
Route 911: 1294 1579 
Route 912: 1297 318 633 
Route 913: 1304 
Route 914: 1308 
Route 915: 1309 1928 
Route 916: 1313 
Route 917: 1314 
Route 918: 1317 
Route 919: 1318 
Route 920: 1976 
Route 921: 1694 
Route 922: 1701 8 
Route 923: 67 135 
Route 924: 112 
Route 925: 1329 
Route 926: 1333 
Route 927: 1071 330 
Route 928: 870 531 
Route 929: 1875 
Route 930: 917 
Route 931: 1355 
Route 932: 298 
Route 933: 1358 253 
Route 934: 1432 259 
Route 935: 1365 
Route 936: 609 
Route 937: 1369 
Route 938: 1750 
Route 939: 1299 1429 
Route 940: 823 
Route 941: 1776 
Route 942: 1777 
Route 943: 1379 
Route 944: 1780 
Route 945: 1643 547 
Route 946: 1285 
Route 947: 1668 1042 
Route 948: 730 
Route 949: 1965 
Route 950: 164 
Route 951: 1814 1919 
Route 952: 1396 
Route 953: 1397 
Route 954: 1987 
Route 955: 1822 
Route 956: 163 
Route 957: 1399 807 
Route 958: 895 818 
Route 959: 1712 61 
Route 960: 1404 295 
Route 961: 1406 442 
Route 962: 1041 
Route 963: 956 
Route 964: 1410 
Route 965: 1413 
Route 966: 1044 
Route 967: 413 1240 
Route 968: 811 777 649 
Route 969: 1428 
Route 970: 1430 
Route 971: 685 33 
Route 972: 88 184 
Route 973: 1922 808 
Route 974: 236 
Route 975: 379 
Route 976: 1026 433 
Route 977: 1948 
Route 978: 1903 378 
Route 979: 1961 
Route 980: 881 
Route 981: 1098 
Route 982: 1174 
Route 983: 1482 
Route 984: 1483 
Route 985: 602 
Route 986: 56 1048 
Route 987: 1492 875 
Route 988: 1424 1191 
Route 989: 1759 
Route 990: 108 1749 1978 1564 
Route 991: 1639 912 
Route 992: 14 
Route 993: 248 1918 
Route 994: 1511 
Route 995: 731 
Route 996: 1530 320 
Route 997: 1407 
Route 998: 1141 
Route 999: 1555 
Route 1000: 1153 1416 445 
Route 1001: 1572 
Route 1002: 28 
Route 1003: 1055 
Route 1004: 1400 
Route 1005: 1839 599 
Route 1006: 1592 
Route 1007: 1593 
Route 1008: 1594 
Route 1009: 1175 
Route 1010: 585 
Route 1011: 1599 
Route 1012: 1606 
Route 1013: 701 
Route 1014: 1616 
Route 1015: 1622 
Route 1016: 1627 1507 
Route 1017: 1630 
Route 1018: 1635 
Route 1019: 1300 
Route 1020: 1644 
Route 1021: 322 
Route 1022: 729 
Route 1023: 233 180 
Route 1024: 750 
Route 1025: 1477 
Route 1026: 178 
Route 1027: 78 181 
Route 1028: 65 244 
Route 1029: 1693 
Route 1030: 1704 
Route 1031: 1705 
Route 1032: 41 98 
Route 1033: 231 
Route 1034: 572 
Route 1035: 1246 
Route 1036: 1723 
Route 1037: 1726 
Route 1038: 1732 
Route 1039: 1734 
Route 1040: 675 1393 
Route 1041: 1739 
Route 1042: 1740 
Route 1043: 286 
Route 1044: 1495 1135 
Route 1045: 1450 342 
Route 1046: 1779 
Route 1047: 1194 
Route 1048: 232 
Route 1049: 36 
Route 1050: 152 
Route 1051: 841 
Route 1052: 1378 
Route 1053: 627 
Route 1054: 35 
Route 1055: 452 
Route 1056: 1830 
Route 1057: 1322 
Route 1058: 1440 559 
Route 1059: 1840 
Route 1060: 427 1444 
Route 1061: 1855 40 
Route 1062: 1858 
Route 1063: 1860 
Route 1064: 1863 
Route 1065: 1870 
Route 1066: 1660 1036 
Route 1067: 1736 
Route 1068: 810 284 
Route 1069: 293 
Route 1070: 692 
Route 1071: 1360 
Route 1072: 1907 
Route 1073: 509 1997 
Route 1074: 1920 
Route 1075: 1923 
Route 1076: 1925 
Route 1077: 1249 
Route 1078: 1931 
Route 1079: 478 928 
Route 1080: 741 48 
Route 1081: 182 418 
Route 1082: 1980 
Route 1083: 1991 258 
Route 1084: 540 
Route 1085: 967 
Route 1086: 520 1536 
Route 1087: 836 471 
Route 1088: 1719 
Route 1089: 16 
Route 1090: 619 636 
Route 1091: 1427 
Route 1092: 1435 
Route 1093: 1439 
Route 1094: 1455 
Route 1095: 1457 
Route 1096: 96 
Route 1097: 1469 
Route 1098: 623 
Route 1099: 626 
Route 1100: 642 
Route 1101: 1028 475 
Route 1102: 1489 
Route 1103: 1111 
Route 1104: 1034 707 
Route 1105: 1508 
Route 1106: 1509 
Route 1107: 410 516 1032 
Route 1108: 375 1390 
Route 1109: 1569 
Route 1110: 1575 
Route 1111: 476 879 
Route 1112: 1591 
Route 1113: 1906 432 
Route 1114: 884 
Route 1115: 1609 1068 
Route 1116: 285 
Route 1117: 1083 
Route 1118: 658 
Route 1119: 1655 
Route 1120: 1667 
Route 1121: 1087 130 
Route 1122: 469 
Route 1123: 173 
Route 1124: 684 
Route 1125: 1269 
Route 1126: 115 508 1737 
Route 1127: 714 
Route 1128: 10 
Route 1129: 1741 
Route 1130: 466 
Route 1131: 1748 
Route 1132: 1761 
Route 1133: 1773 
Route 1134: 737 
Route 1135: 1784 401 
Route 1136: 1790 767 
Route 1137: 1797 
Route 1138: 205 
Route 1139: 1720 1713 
Route 1140: 55 
Route 1141: 368 932 
Route 1142: 1848 
Route 1143: 1558 
Route 1144: 1856 176 
Route 1145: 338 1337 
Route 1146: 1346 
Route 1147: 1398 1183 
Route 1148: 1485 
Route 1149: 473 507 
Route 1150: 407 1190 
Route 1151: 1208 
Route 1152: 1364 131 1834 
Route 1153: 1995 
Route 1154: 1890 
Route 1155: 198 
Route 1156: 214 
Route 1157: 659 376 
Route 1158: 215 616 
Route 1159: 1268 
Route 1160: 1163 350 
Route 1161: 201 
Route 1162: 855 
Route 1163: 382 
Route 1164: 1288 
Route 1165: 218 
Route 1166: 219 1043 
Route 1167: 480 
Route 1168: 1408 
Route 1169: 220 716 
Route 1170: 793 
Route 1171: 1357 
Route 1172: 922 929 
Route 1173: 223 
Route 1174: 1385 
Route 1175: 933 399 570 
Route 1176: 226 
Route 1177: 228 1229 
Route 1178: 1418 
Route 1179: 957 313 
Route 1180: 964 
Route 1181: 1224 470 
Route 1182: 1718 
Route 1183: 358 
Route 1184: 243 1012 
Route 1185: 892 
Route 1186: 1502 
Route 1187: 832 
Route 1188: 53 156 
Route 1189: 1352 847 1403 1578 
Route 1190: 1596 
Route 1191: 1040 
Route 1192: 1638 
Route 1193: 1582 
Route 1194: 1652 
Route 1195: 942 
Route 1196: 110 
Route 1197: 308 
Route 1198: 337 
Route 1199: 763 
Route 1200: 1969 
Route 1201: 398 
Route 1202: 1484 
Route 1203: 1744 
Route 1204: 348 
Route 1205: 1786 605 
Route 1206: 72 1835 
Route 1207: 1105 
Route 1208: 1819 
Route 1209: 247 
Route 1210: 1852 
Route 1211: 183 
Route 1212: 1401 139 
Route 1213: 255 
Route 1214: 260 
Route 1215: 1902 
Route 1216: 538 
Route 1217: 1930 
Route 1218: 554 
Route 1219: 669 
Route 1220: 245 1145 154 
Route 1221: 1675 
Route 1222: 464 
Route 1223: 1179 
Route 1224: 128 297 
Route 1225: 1951 
Route 1226: 266 
Route 1227: 1366 
Route 1228: 787 252 920 
Route 1229: 1238 1405 
Route 1230: 1239 
Route 1231: 1181 107 1094 
Route 1232: 239 
Route 1233: 1024 
Route 1234: 548 
Route 1235: 526 
Route 1236: 400 
Route 1237: 644 583 
Route 1238: 453 
Route 1239: 1345 
Route 1240: 305 
Route 1241: 1478 
Route 1242: 134 
Route 1243: 1117 1629 
Route 1244: 848 15 
Route 1245: 277 
Route 1246: 485 
Route 1247: 1467 
Route 1248: 142 
Route 1249: 279 
Route 1250: 254 
Route 1251: 288 710 
Route 1252: 289 
Route 1253: 565 
Route 1254: 1556 
Route 1255: 491 
Route 1256: 17 
Route 1257: 1546 294 
Route 1258: 126 
Route 1259: 299 
Route 1260: 1527 207 
Route 1261: 885 
Route 1262: 521 
Route 1263: 1547 64 
Route 1264: 307 1118 
Route 1265: 576 
Route 1266: 1409 1595 
Route 1267: 311 
Route 1268: 1876 
Route 1269: 1935 
Route 1270: 1953 264 
Route 1271: 314 
Route 1272: 321 
Route 1273: 416 872 
Route 1274: 324 
Route 1275: 327 1781 
Route 1276: 1067 
Route 1277: 1075 
Route 1278: 537 275 
Route 1279: 23 
Route 1280: 1204 
Route 1281: 1426 
Route 1282: 1818 196 
Route 1283: 613 
Route 1284: 336 
Route 1285: 339 
Route 1286: 341 
Route 1287: 589 241 
Route 1288: 1214 
Route 1289: 270 
Route 1290: 349 
Route 1291: 352 
Route 1292: 360 
Route 1293: 577 
Route 1294: 578 30 
Route 1295: 1247 217 
Route 1296: 278 
Route 1297: 1794 428 
Route 1298: 900 1671 
Route 1299: 291 
Route 1300: 500 
Route 1301: 261 927 
Route 1302: 612 
Route 1303: 1881 189 1672 
Route 1304: 1132 1683 303 
Route 1305: 392 
Route 1306: 397 
Route 1307: 749 
Route 1308: 958 
Route 1309: 403 622 1103 
Route 1310: 1262 
Route 1311: 405 735 670 
Route 1312: 411 
Route 1313: 1690 
Route 1314: 412 
Route 1315: 1714 268 
Route 1316: 1342 312 1394 
Route 1317: 451 759 1479 
Route 1318: 524 543 
Route 1319: 437 
Route 1320: 438 
Route 1321: 883 
Route 1322: 514 
Route 1323: 1248 
Route 1324: 1143 
Route 1325: 497 
Route 1326: 460 93 
Route 1327: 1420 
Route 1328: 468 
Route 1329: 1037 
Route 1330: 1647 51 
Route 1331: 486 
Route 1332: 25 1199 
Route 1333: 542 
Route 1334: 488 
Route 1335: 936 
Route 1336: 1086 
Route 1337: 489 
Route 1338: 490 
Route 1339: 1266 
Route 1340: 768 481 
Route 1341: 1497 
Route 1342: 511 
Route 1343: 522 
Route 1344: 345 
Route 1345: 1473 177 141 
Route 1346: 143 
Route 1347: 1182 
Route 1348: 1677 
Route 1349: 84 
Route 1350: 1326 
Route 1351: 265 1498 
Route 1352: 430 1886 
Route 1353: 234 19 
Route 1354: 569 
Route 1355: 101 
Route 1356: 1884 
Route 1357: 493 83 551 
Route 1358: 603 
Route 1359: 140 
Route 1360: 607 
Route 1361: 212 
Route 1362: 650 
Route 1363: 1076 274 
Route 1364: 1967 31 
Route 1365: 281 
Route 1366: 676 
Route 1367: 693 
Route 1368: 757 1189 
Route 1369: 778 
Route 1370: 821 
Route 1371: 1327 657 
Route 1372: 840 
Route 1373: 290 
Route 1374: 861 
Route 1375: 533 160 
Route 1376: 137 
Route 1377: 893 
Route 1378: 366 886 
Route 1379: 210 37 347 
Route 1380: 157 
Route 1381: 1039 370 
Route 1382: 1050 
Route 1383: 1051 
Route 1384: 380 
Route 1385: 384 
Route 1386: 1106 
Route 1387: 606 1261 1149 
Route 1388: 1912 
Route 1389: 1126 595 
Route 1390: 1275 880 
Route 1391: 1321 119 
Route 1392: 652 
Route 1393: 267 
Route 1394: 1810 1402 122 
Route 1395: 1966 523 
Route 1396: 12 
Route 1397: 980 150 
Route 1398: 571 
Route 1399: 539 
Route 1400: 118 
Route 1401: 68 
Route 1402: 982 39 579 
Route 1403: 44 947 
Route 1404: 566 
Route 1405: 365 
Route 1406: 208 
Route 1407: 46 
Route 1408: 26 
Route 1409: 981 
Route 1410: 144 
Route 1411: 85 
Route 1412: 970 120 
Route 1413: 563 
Route 1414: 1382 77 333 
Route 1415: 1892 
Route 1416: 328 1049 
Route 1417: 580 
Route 1418: 1832 646 
Route 1419: 1112 1 
Route 1420: 6 
Route 1421: 13 306 
Route 1422: 461 
Route 1423: 385 187 
Route 1424: 329 
Route 1425: 487 
Route 1426: 387 1289 655 
Route 1427: 95 1215 
Route 1428: 111 2000 
Route 1429: 73 555 
Route 1430: 546 
Route 1431: 75 47 1370 
Route 1432: 43 891 166 
Route 1433: 158 146 
Route 1434: 415 
Route 1435: 1011 
Route 1436: 1093 826 
Route 1437: 557 
Route 1438: 1097 162 849 81 
